/* Objective function */
min: - 0.0054fpdi - 0.0054fpdo + 0.05apdi + 0.05apdo + 0.0002pi + 0.0002po - 0.5fsi - 0.5fso;

apdi = 0.0 hi + -0.0 li + 12.45484 ri + -0.00635 ci + -1.87986 si + 0.0 ti + 0.12381 fTempIi + 0.00473 ami + -153.63391;
asi = 0.0 hi + 0.0 li + -3e-05 ri + -3e-05 ci + -1e-05 si + 0.0 ti + -5e-05 fTempIi + 5e-05 ami + 0.01251;
aTempOi = 0.0 hi + -0.0 li + 0.2891 ri + -0.03172 ci + -0.05586 si + -0.0 ti + 0.78358 fTempIi + -0.00014 ami + 6.95739;
fpdi = 0.0 hi + 0.0 li + 19.52804 ri + -20.23408 ci + -0.04462 si + 0.0 ti + -1.03246 fTempIi + 0.00011 ami + 547.95362;
fsi = 0.0 hi + 0.0 li + -0.00016 ri + -0.05249 ci + 3e-05 si + 0.0 ti + 0.00077 fTempIi + -0.0 ami + 2.70821;
fTempOi = 0.0 hi + -0.0 li + -0.28633 ri + 0.03167 ci + 0.05527 si + 0.0 ti + 0.23263 fTempIi + -0.00012 ami + 9.75736;
pi = 0.0 hi + -0.0 li + 469.85 ri + 3.14 ci + -40.18914 si + 0.0 ti + 0.0 fTempIi + 0.0 ami + 1575.58286;

apdo = 0.0 ho + 0.0 lo + 10.56453 ro + 0.00498 co + -1.48636 so + 0.0 to + 0.10983 fTempIo + 0.00422 amo + -121.90268;
aso = 0.0 ho + 0.0 lo + 0.0 ro + 0.0 co + 0.0 so + 0.0 to + 0.0 fTempIo + 5e-05 amo + 0.00946;
aTempOo = 0.0 ho + 0.0 lo + -0.32984 ro + 0.03606 co + 0.04501 so + 0.0 to + 0.73311 fTempIo + 0.00014 amo + 0.1215;
fpdo = 0.0 ho + -0.0 lo + 11.80626 ro + -10.45997 co + 0.02281 so + 0.0 to + -0.67004 fTempIo + -7e-05 amo + 340.01813;
fso = 0.0 ho + -0.0 lo + 0.00014 ro + -0.03678 co + -2e-05 so + 0.0 to + 0.00073 fTempIo + 0.0 amo + 2.26922;
fTempOo = 0.0 ho + 0.0 lo + 0.32447 ro + -0.03539 co + -0.04422 so + 0.0 to + 0.27308 fTempIo + 0.00013 amo + 12.30024;
po = 0.0 ho + 0.0 lo + 591.26458 ro + 3.13 co + -59.37333 so + 0.0 to + -0.0 fTempIo + 0.0 amo + 2975.0575;

/* Variable bounds */
aTempOi > 18.6;
1 =r6i + r8i + r10i + r12i + r14i;
ri =6r6i + 8r8i + 10r10i + 12r12i + 14r14i;
1 =s25i + s30i + s40i;
si =25s25i + 30s30i + 40s40i;
ti = 2;
apdi > 100;
apdi < 300;
asi > 0;
asi < 3;
aTempOi > 5;
aTempOi < 25;
fpdi > 100;
fpdi < 300;
fsi > 0;
fsi < 1.25;
fTempOi > 5;
fTempOi < 25;
pi > 0;
ri > 6;
ri < 14;
ci > 1;
ci < 32;
si > 25;
si < 60;
ti > 1;
ti < 3;
fTempIi > 5;
fTempIi < 25;

/* aTempOo < 11.4; */
1 =r6o + r8o + r10o + r12o + r14o;
ro =6r6o + 8r8o + 10r10o + 12r12o + 14r14o;
1 =s30o + s40o + s50o + s60o;
so =30s30o + 40s40o + 50s50o + 60s60o;
to = 3;
apdo > 100;
apdo < 300;
aso > 0;
aso < 3;
aTempOo > 5;
aTempOo < 25;
fpdo > 100;
fpdo < 300;
fso > 0;
fso < 1.25;
fTempOo > 5;
fTempOo < 25;
po > 0;
ro > 6;
ro < 14;
co > 26;
co < 60;
so > 25;
so < 60;
to > 1;
to < 3;
fTempIo > 5;
fTempIo < 25;
int hi,li,si,ti,ci,ri,ami;
int ho,lo,so,to,co,ro,amo;
bin s25i,s30i,s40i,s50i,s60i,r6i,r8i,r10i,r12i,r14i;
bin s25o,s30o,s40o,s50o,s60o,r6o,r8o,r10o,r12o,r14o;
